
Gurobi 11.0.0 (mac64[arm]) logging started Fri Apr 19 16:16:12 2024

Set parameter LogFile to value "GurobiLogs/boxing_2.txt"
Set parameter TimeLimit to value 3600
Unknown variable 'd[0]' in MIP start 0 - ignored
Unknown variable 'a[Judge_Associated_Press,0]' in MIP start 0 - ignored
Unknown variable 'a[Judge_Boxing_Monthly-Leach,0]' in MIP start 0 - ignored
Unknown variable 'a[Judge_Boxing_Times,0]' in MIP start 0 - ignored
Unknown variable 'a[Judge_E._Williams,0]' in MIP start 0 - ignored
Unknown variable 'a[Judge_ESPN,0]' in MIP start 0 - ignored
Unknown variable 'a[Judge_HBO-Lederman,0]' in MIP start 0 - ignored
Unknown variable 'a[Judge_L._OConnell,0]' in MIP start 0 - ignored
Unknown variable 'a[Judge_S._Christodoulu,0]' in MIP start 0 - ignored
Unknown variable 'a[Judge_Sportsline,0]' in MIP start 0 - ignored
Unknown variable 'a[Judge_Sportsticker,0]' in MIP start 0 - ignored
Unknown variable 'a[Official_Yes,0]' in MIP start 0 - ignored
Unknown variable 'a[Round_1,0]' in MIP start 0 - ignored
Unknown variable 'a[Round_10,0]' in MIP start 0 - ignored
Unknown variable 'a[Round_11,0]' in MIP start 0 - ignored
Unknown variable 'a[Round_12,0]' in MIP start 0 - ignored
Unknown variable 'a[Round_2,0]' in MIP start 0 - ignored
Unknown variable 'a[Round_3,0]' in MIP start 0 - ignored
Unknown variable 'a[Round_4,0]' in MIP start 0 - ignored
Unknown variable 'a[Round_5,0]' in MIP start 0 - ignored
Unknown variable 'a[Round_6,0]' in MIP start 0 - ignored
Unknown variable 'a[Round_7,0]' in MIP start 0 - ignored
Unknown variable 'a[Round_8,0]' in MIP start 0 - ignored
Unknown variable 'a[Round_9,0]' in MIP start 0 - ignored
Unknown variable 'z[18,1]' in MIP start 0 - ignored
Unknown variable 'z[18,2]' in MIP start 0 - ignored
Unknown variable 'z[19,1]' in MIP start 0 - ignored
Unknown variable 'z[19,2]' in MIP start 0 - ignored
Unknown variable 'z[81,1]' in MIP start 0 - ignored
Unknown variable 'z[81,2]' in MIP start 0 - ignored
Unknown variable 'z[101,1]' in MIP start 0 - ignored
Unknown variable 'z[101,2]' in MIP start 0 - ignored
Unknown variable 'z[6,1]' in MIP start 0 - ignored
Unknown variable 'z[6,2]' in MIP start 0 - ignored
Unknown variable 'z[99,1]' in MIP start 0 - ignored
Unknown variable 'z[99,2]' in MIP start 0 - ignored
Unknown variable 'z[54,1]' in MIP start 0 - ignored
Unknown variable 'z[54,2]' in MIP start 0 - ignored
Unknown variable 'z[9,1]' in MIP start 0 - ignored
Unknown variable 'z[9,2]' in MIP start 0 - ignored
Unknown variable 'z[117,1]' in MIP start 0 - ignored
Unknown variable 'z[117,2]' in MIP start 0 - ignored
Unknown variable 'z[119,1]' in MIP start 0 - ignored
Unknown variable 'z[119,2]' in MIP start 0 - ignored
Unknown variable 'z[10,1]' in MIP start 0 - ignored
Unknown variable 'z[10,2]' in MIP start 0 - ignored
Unknown variable 'z[12,1]' in MIP start 0 - ignored
Unknown variable 'z[12,2]' in MIP start 0 - ignored
Unknown variable 'z[89,1]' in MIP start 0 - ignored
Unknown variable 'z[89,2]' in MIP start 0 - ignored
Unknown variable 'z[71,1]' in MIP start 0 - ignored
Unknown variable 'z[71,2]' in MIP start 0 - ignored
Unknown variable 'z[26,1]' in MIP start 0 - ignored
Unknown variable 'z[26,2]' in MIP start 0 - ignored
Unknown variable 'z[32,1]' in MIP start 0 - ignored
Unknown variable 'z[32,2]' in MIP start 0 - ignored
Unknown variable 'z[114,1]' in MIP start 0 - ignored
Unknown variable 'z[114,2]' in MIP start 0 - ignored
Unknown variable 'z[62,1]' in MIP start 0 - ignored
Unknown variable 'z[62,2]' in MIP start 0 - ignored
Unknown variable 'z[57,1]' in MIP start 0 - ignored
Unknown variable 'z[57,2]' in MIP start 0 - ignored
Unknown variable 'z[115,1]' in MIP start 0 - ignored
Unknown variable 'z[115,2]' in MIP start 0 - ignored
Unknown variable 'z[17,1]' in MIP start 0 - ignored
Unknown variable 'z[17,2]' in MIP start 0 - ignored
Unknown variable 'z[116,1]' in MIP start 0 - ignored
Unknown variable 'z[116,2]' in MIP start 0 - ignored
Unknown variable 'z[118,1]' in MIP start 0 - ignored
Unknown variable 'z[118,2]' in MIP start 0 - ignored
Unknown variable 'z[78,1]' in MIP start 0 - ignored
Unknown variable 'z[78,2]' in MIP start 0 - ignored
Unknown variable 'z[8,1]' in MIP start 0 - ignored
Unknown variable 'z[8,2]' in MIP start 0 - ignored
Unknown variable 'z[86,1]' in MIP start 0 - ignored
Unknown variable 'z[86,2]' in MIP start 0 - ignored
Unknown variable 'z[98,1]' in MIP start 0 - ignored
Unknown variable 'z[98,2]' in MIP start 0 - ignored
Unknown variable 'z[108,1]' in MIP start 0 - ignored
Unknown variable 'z[108,2]' in MIP start 0 - ignored
Unknown variable 'z[103,1]' in MIP start 0 - ignored
Unknown variable 'z[103,2]' in MIP start 0 - ignored
Unknown variable 'z[96,1]' in MIP start 0 - ignored
Unknown variable 'z[96,2]' in MIP start 0 - ignored
Unknown variable 'z[50,1]' in MIP start 0 - ignored
Unknown variable 'z[50,2]' in MIP start 0 - ignored
Unknown variable 'z[76,1]' in MIP start 0 - ignored
Unknown variable 'z[76,2]' in MIP start 0 - ignored
Unknown variable 'z[52,1]' in MIP start 0 - ignored
Unknown variable 'z[52,2]' in MIP start 0 - ignored
Unknown variable 'z[80,1]' in MIP start 0 - ignored
Unknown variable 'z[80,2]' in MIP start 0 - ignored
Unknown variable 'z[66,1]' in MIP start 0 - ignored
Unknown variable 'z[66,2]' in MIP start 0 - ignored
Unknown variable 'z[102,1]' in MIP start 0 - ignored
Unknown variable 'z[102,2]' in MIP start 0 - ignored
Unknown variable 'z[83,1]' in MIP start 0 - ignored
Unknown variable 'z[83,2]' in MIP start 0 - ignored
Unknown variable 'z[70,1]' in MIP start 0 - ignored
Unknown variable 'z[70,2]' in MIP start 0 - ignored
Unknown variable 'z[46,1]' in MIP start 0 - ignored
Unknown variable 'z[46,2]' in MIP start 0 - ignored
Unknown variable 'z[68,1]' in MIP start 0 - ignored
Unknown variable 'z[68,2]' in MIP start 0 - ignored
Unknown variable 'z[88,1]' in MIP start 0 - ignored
Unknown variable 'z[88,2]' in MIP start 0 - ignored
Unknown variable 'z[69,1]' in MIP start 0 - ignored
Unknown variable 'z[69,2]' in MIP start 0 - ignored
Unknown variable 'z[97,1]' in MIP start 0 - ignored
Unknown variable 'z[97,2]' in MIP start 0 - ignored
Unknown variable 'z[58,1]' in MIP start 0 - ignored
Unknown variable 'z[58,2]' in MIP start 0 - ignored
Unknown variable 'z[33,1]' in MIP start 0 - ignored
Unknown variable 'z[33,2]' in MIP start 0 - ignored
Unknown variable 'z[38,1]' in MIP start 0 - ignored
Unknown variable 'z[38,2]' in MIP start 0 - ignored
Unknown variable 'z[51,1]' in MIP start 0 - ignored
Unknown variable 'z[51,2]' in MIP start 0 - ignored
Unknown variable 'z[42,1]' in MIP start 0 - ignored
Unknown variable 'z[42,2]' in MIP start 0 - ignored
Unknown variable 'z[4,1]' in MIP start 0 - ignored
Unknown variable 'z[4,2]' in MIP start 0 - ignored
Unknown variable 'z[67,1]' in MIP start 0 - ignored
Unknown variable 'z[67,2]' in MIP start 0 - ignored
Unknown variable 'z[39,1]' in MIP start 0 - ignored
Unknown variable 'z[39,2]' in MIP start 0 - ignored
Unknown variable 'z[37,1]' in MIP start 0 - ignored
Unknown variable 'z[37,2]' in MIP start 0 - ignored
Unknown variable 'z[20,1]' in MIP start 0 - ignored
Unknown variable 'z[20,2]' in MIP start 0 - ignored
Unknown variable 'z[90,1]' in MIP start 0 - ignored
Unknown variable 'z[90,2]' in MIP start 0 - ignored
Unknown variable 'z[31,1]' in MIP start 0 - ignored
Unknown variable 'z[31,2]' in MIP start 0 - ignored
Unknown variable 'z[63,1]' in MIP start 0 - ignored
Unknown variable 'z[63,2]' in MIP start 0 - ignored
Unknown variable 'z[47,1]' in MIP start 0 - ignored
Unknown variable 'z[47,2]' in MIP start 0 - ignored
Unknown variable 'z[85,1]' in MIP start 0 - ignored
Unknown variable 'z[85,2]' in MIP start 0 - ignored
Unknown variable 'z[112,1]' in MIP start 0 - ignored
Unknown variable 'z[112,2]' in MIP start 0 - ignored
Unknown variable 'z[95,1]' in MIP start 0 - ignored
Unknown variable 'z[95,2]' in MIP start 0 - ignored
Unknown variable 'z[49,1]' in MIP start 0 - ignored
Unknown variable 'z[49,2]' in MIP start 0 - ignored
Unknown variable 'z[34,1]' in MIP start 0 - ignored
Unknown variable 'z[34,2]' in MIP start 0 - ignored
Unknown variable 'z[7,1]' in MIP start 0 - ignored
Unknown variable 'z[7,2]' in MIP start 0 - ignored
Unknown variable 'z[104,1]' in MIP start 0 - ignored
Unknown variable 'z[104,2]' in MIP start 0 - ignored
Unknown variable 'z[75,1]' in MIP start 0 - ignored
Unknown variable 'z[75,2]' in MIP start 0 - ignored
Unknown variable 'z[82,1]' in MIP start 0 - ignored
Unknown variable 'z[82,2]' in MIP start 0 - ignored
Unknown variable 'z[43,1]' in MIP start 0 - ignored
Unknown variable 'z[43,2]' in MIP start 0 - ignored
Unknown variable 'z[22,1]' in MIP start 0 - ignored
Unknown variable 'z[22,2]' in MIP start 0 - ignored
Unknown variable 'z[72,1]' in MIP start 0 - ignored
Unknown variable 'z[72,2]' in MIP start 0 - ignored
Unknown variable 'z[109,1]' in MIP start 0 - ignored
Unknown variable 'z[109,2]' in MIP start 0 - ignored
Unknown variable 'z[15,1]' in MIP start 0 - ignored
Unknown variable 'z[15,2]' in MIP start 0 - ignored
Unknown variable 'z[40,1]' in MIP start 0 - ignored
Unknown variable 'z[40,2]' in MIP start 0 - ignored
Unknown variable 'l[1]' in MIP start 0 - ignored
Unknown variable 'l[2]' in MIP start 0 - ignored
Unknown variable 'Beta[Judge_Associated_Press,1]' in MIP start 0 - ignored
Unknown variable 'Beta[Judge_Associated_Press,2]' in MIP start 0 - ignored
Unknown variable 'Beta[Judge_Boxing_Monthly-Leach,1]' in MIP start 0 - ignored
Unknown variable 'Beta[Judge_Boxing_Monthly-Leach,2]' in MIP start 0 - ignored
Unknown variable 'Beta[Judge_Boxing_Times,1]' in MIP start 0 - ignored
Unknown variable 'Beta[Judge_Boxing_Times,2]' in MIP start 0 - ignored
Unknown variable 'Beta[Judge_E._Williams,1]' in MIP start 0 - ignored
Unknown variable 'Beta[Judge_E._Williams,2]' in MIP start 0 - ignored
Unknown variable 'Beta[Judge_ESPN,1]' in MIP start 0 - ignored
Unknown variable 'Beta[Judge_ESPN,2]' in MIP start 0 - ignored
Unknown variable 'Beta[Judge_HBO-Lederman,1]' in MIP start 0 - ignored
Unknown variable 'Beta[Judge_HBO-Lederman,2]' in MIP start 0 - ignored
Unknown variable 'Beta[Judge_L._OConnell,1]' in MIP start 0 - ignored
Unknown variable 'Beta[Judge_L._OConnell,2]' in MIP start 0 - ignored
Unknown variable 'Beta[Judge_S._Christodoulu,1]' in MIP start 0 - ignored
Unknown variable 'Beta[Judge_S._Christodoulu,2]' in MIP start 0 - ignored
Unknown variable 'Beta[Judge_Sportsline,1]' in MIP start 0 - ignored
Unknown variable 'Beta[Judge_Sportsline,2]' in MIP start 0 - ignored
Unknown variable 'Beta[Judge_Sportsticker,1]' in MIP start 0 - ignored
Unknown variable 'Beta[Judge_Sportsticker,2]' in MIP start 0 - ignored
Unknown variable 'Beta[Official_Yes,1]' in MIP start 0 - ignored
Unknown variable 'Beta[Official_Yes,2]' in MIP start 0 - ignored
Unknown variable 'Beta[Round_1,1]' in MIP start 0 - ignored
Unknown variable 'Beta[Round_1,2]' in MIP start 0 - ignored
Unknown variable 'Beta[Round_10,1]' in MIP start 0 - ignored
Unknown variable 'Beta[Round_10,2]' in MIP start 0 - ignored
Unknown variable 'Beta[Round_11,1]' in MIP start 0 - ignored
Unknown variable 'Beta[Round_11,2]' in MIP start 0 - ignored
Unknown variable 'Beta[Round_12,1]' in MIP start 0 - ignored
Unknown variable 'Beta[Round_12,2]' in MIP start 0 - ignored
Unknown variable 'Beta[Round_2,1]' in MIP start 0 - ignored
Unknown variable 'Beta[Round_2,2]' in MIP start 0 - ignored
Unknown variable 'Beta[Round_3,1]' in MIP start 0 - ignored
Unknown variable 'Beta[Round_3,2]' in MIP start 0 - ignored
Unknown variable 'Beta[Round_4,1]' in MIP start 0 - ignored
Unknown variable 'Beta[Round_4,2]' in MIP start 0 - ignored
Unknown variable 'Beta[Round_5,1]' in MIP start 0 - ignored
Unknown variable 'Beta[Round_5,2]' in MIP start 0 - ignored
Unknown variable 'Beta[Round_6,1]' in MIP start 0 - ignored
Unknown variable 'Beta[Round_6,2]' in MIP start 0 - ignored
Unknown variable 'Beta[Round_7,1]' in MIP start 0 - ignored
Unknown variable 'Beta[Round_7,2]' in MIP start 0 - ignored
Unknown variable 'Beta[Round_8,1]' in MIP start 0 - ignored
Unknown variable 'Beta[Round_8,2]' in MIP start 0 - ignored
Unknown variable 'Beta[Round_9,1]' in MIP start 0 - ignored
Unknown variable 'Beta[Round_9,2]' in MIP start 0 - ignored
Unknown variable 'Beta_abs[Judge_Associated_Press,1]' in MIP start 0 - ignored
Unknown variable 'Beta_abs[Judge_Associated_Press,2]' in MIP start 0 - ignored
Unknown variable 'Beta_abs[Judge_Boxing_Monthly-Leach,1]' in MIP start 0 - ignored
Unknown variable 'Beta_abs[Judge_Boxing_Monthly-Leach,2]' in MIP start 0 - ignored
Unknown variable 'Beta_abs[Judge_Boxing_Times,1]' in MIP start 0 - ignored
Unknown variable 'Beta_abs[Judge_Boxing_Times,2]' in MIP start 0 - ignored
Unknown variable 'Beta_abs[Judge_E._Williams,1]' in MIP start 0 - ignored
Unknown variable 'Beta_abs[Judge_E._Williams,2]' in MIP start 0 - ignored
Unknown variable 'Beta_abs[Judge_ESPN,1]' in MIP start 0 - ignored
Unknown variable 'Beta_abs[Judge_ESPN,2]' in MIP start 0 - ignored
Unknown variable 'Beta_abs[Judge_HBO-Lederman,1]' in MIP start 0 - ignored
Unknown variable 'Beta_abs[Judge_HBO-Lederman,2]' in MIP start 0 - ignored
Unknown variable 'Beta_abs[Judge_L._OConnell,1]' in MIP start 0 - ignored
Unknown variable 'Beta_abs[Judge_L._OConnell,2]' in MIP start 0 - ignored
Unknown variable 'Beta_abs[Judge_S._Christodoulu,1]' in MIP start 0 - ignored
Unknown variable 'Beta_abs[Judge_S._Christodoulu,2]' in MIP start 0 - ignored
Unknown variable 'Beta_abs[Judge_Sportsline,1]' in MIP start 0 - ignored
Unknown variable 'Beta_abs[Judge_Sportsline,2]' in MIP start 0 - ignored
Unknown variable 'Beta_abs[Judge_Sportsticker,1]' in MIP start 0 - ignored
Unknown variable 'Beta_abs[Judge_Sportsticker,2]' in MIP start 0 - ignored
Unknown variable 'Beta_abs[Official_Yes,1]' in MIP start 0 - ignored
Unknown variable 'Beta_abs[Official_Yes,2]' in MIP start 0 - ignored
Unknown variable 'Beta_abs[Round_1,1]' in MIP start 0 - ignored
Unknown variable 'Beta_abs[Round_1,2]' in MIP start 0 - ignored
Unknown variable 'Beta_abs[Round_10,1]' in MIP start 0 - ignored
Unknown variable 'Beta_abs[Round_10,2]' in MIP start 0 - ignored
Unknown variable 'Beta_abs[Round_11,1]' in MIP start 0 - ignored
Unknown variable 'Beta_abs[Round_11,2]' in MIP start 0 - ignored
Unknown variable 'Beta_abs[Round_12,1]' in MIP start 0 - ignored
Unknown variable 'Beta_abs[Round_12,2]' in MIP start 0 - ignored
Unknown variable 'Beta_abs[Round_2,1]' in MIP start 0 - ignored
Unknown variable 'Beta_abs[Round_2,2]' in MIP start 0 - ignored
Unknown variable 'Beta_abs[Round_3,1]' in MIP start 0 - ignored
Unknown variable 'Beta_abs[Round_3,2]' in MIP start 0 - ignored
Unknown variable 'Beta_abs[Round_4,1]' in MIP start 0 - ignored
Unknown variable 'Beta_abs[Round_4,2]' in MIP start 0 - ignored
Unknown variable 'Beta_abs[Round_5,1]' in MIP start 0 - ignored
Unknown variable 'Beta_abs[Round_5,2]' in MIP start 0 - ignored
Unknown variable 'Beta_abs[Round_6,1]' in MIP start 0 - ignored
Unknown variable 'Beta_abs[Round_6,2]' in MIP start 0 - ignored
Unknown variable 'Beta_abs[Round_7,1]' in MIP start 0 - ignored
Unknown variable 'Beta_abs[Round_7,2]' in MIP start 0 - ignored
Unknown variable 'Beta_abs[Round_8,1]' in MIP start 0 - ignored
Unknown variable 'Beta_abs[Round_8,2]' in MIP start 0 - ignored
Unknown variable 'Beta_abs[Round_9,1]' in MIP start 0 - ignored
Unknown variable 'Beta_abs[Round_9,2]' in MIP start 0 - ignored
Read MIP start from file WarmStarts/boxing_2.mst
Gurobi Optimizer version 11.0.0 build v11.0.0rc2 (mac64[arm] - Darwin 23.4.0 23E224)

CPU model: Apple M3 Pro
Thread count: 11 physical cores, 11 logical processors, using up to 11 threads

Optimize a model with 154 rows, 79 columns and 455 nonzeros
Model fingerprint: 0xa0a1dedf
Variable types: 0 continuous, 79 integer (75 binary)
Coefficient statistics:
  Matrix range     [1e+00, 7e+01]
  Objective range  [1e+00, 1e+00]
  Bounds range     [1e+00, 1e+00]
  RHS range        [1e+00, 7e+01]

No start values specified in MIP start

Found heuristic solution: objective 27.0000000
Presolve removed 154 rows and 79 columns
Presolve time: 0.00s
Presolve: All rows and columns removed

Explored 0 nodes (0 simplex iterations) in 0.00 seconds (0.00 work units)
Thread count was 1 (of 11 available processors)

Solution count 1: 27 

Optimal solution found (tolerance 1.00e-04)
Best objective 2.700000000000e+01, best bound 2.700000000000e+01, gap 0.0000%

Gurobi 11.0.0 (mac64[arm]) logging started Fri Apr 19 16:16:12 2024

Set parameter LogFile to value "GurobiLogs/boxing_2.txt"
Set parameter TimeLimit to value 3600
Read MIP start from file WarmStarts/boxing_2.mst
Gurobi Optimizer version 11.0.0 build v11.0.0rc2 (mac64[arm] - Darwin 23.4.0 23E224)

CPU model: Apple M3 Pro
Thread count: 11 physical cores, 11 logical processors, using up to 11 threads

Optimize a model with 154 rows, 79 columns and 455 nonzeros
Model fingerprint: 0xb8e03dfd
Variable types: 0 continuous, 79 integer (75 binary)
Coefficient statistics:
  Matrix range     [1e+00, 7e+01]
  Objective range  [1e+00, 1e+00]
  Bounds range     [1e+00, 1e+00]
  RHS range        [1e+00, 7e+01]

Loaded user MIP start with objective 27

Presolve removed 154 rows and 79 columns
Presolve time: 0.00s
Presolve: All rows and columns removed

Explored 0 nodes (0 simplex iterations) in 0.00 seconds (0.00 work units)
Thread count was 1 (of 11 available processors)

Solution count 1: 27 

Optimal solution found (tolerance 1.00e-04)
Best objective 2.700000000000e+01, best bound 2.700000000000e+01, gap 0.0000%

Gurobi 11.0.0 (mac64[arm]) logging started Fri Apr 19 16:16:12 2024

Set parameter LogFile to value "GurobiLogs/boxing_2.txt"
Set parameter TimeLimit to value 3600
Read MIP start from file WarmStarts/boxing_2.mst
Gurobi Optimizer version 11.0.0 build v11.0.0rc2 (mac64[arm] - Darwin 23.4.0 23E224)

CPU model: Apple M3 Pro
Thread count: 11 physical cores, 11 logical processors, using up to 11 threads

Optimize a model with 154 rows, 79 columns and 455 nonzeros
Model fingerprint: 0xb8e03dfd
Variable types: 0 continuous, 79 integer (75 binary)
Coefficient statistics:
  Matrix range     [1e+00, 7e+01]
  Objective range  [1e+00, 1e+00]
  Bounds range     [1e+00, 1e+00]
  RHS range        [1e+00, 7e+01]

Loaded user MIP start with objective 27

Presolve removed 154 rows and 79 columns
Presolve time: 0.00s
Presolve: All rows and columns removed

Explored 0 nodes (0 simplex iterations) in 0.00 seconds (0.00 work units)
Thread count was 1 (of 11 available processors)

Solution count 1: 27 

Optimal solution found (tolerance 1.00e-04)
Best objective 2.700000000000e+01, best bound 2.700000000000e+01, gap 0.0000%

Gurobi 11.0.0 (mac64[arm]) logging started Fri Apr 19 16:16:12 2024

Set parameter LogFile to value "GurobiLogs/boxing_2.txt"
Set parameter TimeLimit to value 3600
Read MIP start from file WarmStarts/boxing_2.mst
Gurobi Optimizer version 11.0.0 build v11.0.0rc2 (mac64[arm] - Darwin 23.4.0 23E224)

CPU model: Apple M3 Pro
Thread count: 11 physical cores, 11 logical processors, using up to 11 threads

Optimize a model with 154 rows, 79 columns and 455 nonzeros
Model fingerprint: 0xb8e03dfd
Variable types: 0 continuous, 79 integer (75 binary)
Coefficient statistics:
  Matrix range     [1e+00, 7e+01]
  Objective range  [1e+00, 1e+00]
  Bounds range     [1e+00, 1e+00]
  RHS range        [1e+00, 7e+01]

Loaded user MIP start with objective 27

Presolve removed 154 rows and 79 columns
Presolve time: 0.00s
Presolve: All rows and columns removed

Explored 0 nodes (0 simplex iterations) in 0.00 seconds (0.00 work units)
Thread count was 1 (of 11 available processors)

Solution count 1: 27 

Optimal solution found (tolerance 1.00e-04)
Best objective 2.700000000000e+01, best bound 2.700000000000e+01, gap 0.0000%

Gurobi 11.0.0 (mac64[arm]) logging started Fri Apr 19 16:16:12 2024

Set parameter LogFile to value "GurobiLogs/boxing_2.txt"
Set parameter TimeLimit to value 3600
Unknown variable 'z[18,0]' in MIP start 0 - ignored
Unknown variable 'z[19,0]' in MIP start 0 - ignored
Unknown variable 'z[81,0]' in MIP start 0 - ignored
Unknown variable 'z[101,0]' in MIP start 0 - ignored
Unknown variable 'z[6,0]' in MIP start 0 - ignored
Unknown variable 'z[99,0]' in MIP start 0 - ignored
Unknown variable 'z[54,0]' in MIP start 0 - ignored
Unknown variable 'z[9,0]' in MIP start 0 - ignored
Unknown variable 'z[117,0]' in MIP start 0 - ignored
Unknown variable 'z[119,0]' in MIP start 0 - ignored
Unknown variable 'z[10,0]' in MIP start 0 - ignored
Unknown variable 'z[12,0]' in MIP start 0 - ignored
Unknown variable 'z[89,0]' in MIP start 0 - ignored
Unknown variable 'z[71,0]' in MIP start 0 - ignored
Unknown variable 'z[26,0]' in MIP start 0 - ignored
Unknown variable 'z[32,0]' in MIP start 0 - ignored
Unknown variable 'z[114,0]' in MIP start 0 - ignored
Unknown variable 'z[62,0]' in MIP start 0 - ignored
Unknown variable 'z[57,0]' in MIP start 0 - ignored
Unknown variable 'z[115,0]' in MIP start 0 - ignored
Unknown variable 'z[17,0]' in MIP start 0 - ignored
Unknown variable 'z[116,0]' in MIP start 0 - ignored
Unknown variable 'z[118,0]' in MIP start 0 - ignored
Unknown variable 'z[78,0]' in MIP start 0 - ignored
Unknown variable 'z[8,0]' in MIP start 0 - ignored
Unknown variable 'z[86,0]' in MIP start 0 - ignored
Unknown variable 'z[98,0]' in MIP start 0 - ignored
Unknown variable 'z[108,0]' in MIP start 0 - ignored
Unknown variable 'z[103,0]' in MIP start 0 - ignored
Unknown variable 'z[96,0]' in MIP start 0 - ignored
Unknown variable 'z[50,0]' in MIP start 0 - ignored
Unknown variable 'z[76,0]' in MIP start 0 - ignored
Unknown variable 'z[52,0]' in MIP start 0 - ignored
Unknown variable 'z[80,0]' in MIP start 0 - ignored
Unknown variable 'z[66,0]' in MIP start 0 - ignored
Unknown variable 'z[102,0]' in MIP start 0 - ignored
Unknown variable 'z[83,0]' in MIP start 0 - ignored
Unknown variable 'z[70,0]' in MIP start 0 - ignored
Unknown variable 'z[46,0]' in MIP start 0 - ignored
Unknown variable 'z[68,0]' in MIP start 0 - ignored
Unknown variable 'z[88,0]' in MIP start 0 - ignored
Unknown variable 'z[69,0]' in MIP start 0 - ignored
Unknown variable 'z[97,0]' in MIP start 0 - ignored
Unknown variable 'z[58,0]' in MIP start 0 - ignored
Unknown variable 'z[33,0]' in MIP start 0 - ignored
Unknown variable 'z[38,0]' in MIP start 0 - ignored
Unknown variable 'z[51,0]' in MIP start 0 - ignored
Unknown variable 'z[42,0]' in MIP start 0 - ignored
Unknown variable 'z[4,0]' in MIP start 0 - ignored
Unknown variable 'z[67,0]' in MIP start 0 - ignored
Unknown variable 'z[39,0]' in MIP start 0 - ignored
Unknown variable 'z[37,0]' in MIP start 0 - ignored
Unknown variable 'z[20,0]' in MIP start 0 - ignored
Unknown variable 'z[90,0]' in MIP start 0 - ignored
Unknown variable 'z[31,0]' in MIP start 0 - ignored
Unknown variable 'z[63,0]' in MIP start 0 - ignored
Unknown variable 'z[47,0]' in MIP start 0 - ignored
Unknown variable 'z[85,0]' in MIP start 0 - ignored
Unknown variable 'z[112,0]' in MIP start 0 - ignored
Unknown variable 'z[95,0]' in MIP start 0 - ignored
Unknown variable 'z[49,0]' in MIP start 0 - ignored
Unknown variable 'z[34,0]' in MIP start 0 - ignored
Unknown variable 'z[7,0]' in MIP start 0 - ignored
Unknown variable 'z[104,0]' in MIP start 0 - ignored
Unknown variable 'z[75,0]' in MIP start 0 - ignored
Unknown variable 'z[82,0]' in MIP start 0 - ignored
Unknown variable 'z[43,0]' in MIP start 0 - ignored
Unknown variable 'z[22,0]' in MIP start 0 - ignored
Unknown variable 'z[72,0]' in MIP start 0 - ignored
Unknown variable 'z[109,0]' in MIP start 0 - ignored
Unknown variable 'z[15,0]' in MIP start 0 - ignored
Unknown variable 'z[40,0]' in MIP start 0 - ignored
Unknown variable 'l[0]' in MIP start 0 - ignored
Unknown variable 'c[-1.0,0]' in MIP start 0 - ignored
Unknown variable 'c[1.0,0]' in MIP start 0 - ignored
Unknown variable 'n_k[-1.0,0]' in MIP start 0 - ignored
Unknown variable 'n_k[1.0,0]' in MIP start 0 - ignored
Unknown variable 'N[0]' in MIP start 0 - ignored
Unknown variable 'L[0]' in MIP start 0 - ignored
Read MIP start from file WarmStarts/boxing_2.mst
Gurobi Optimizer version 11.0.0 build v11.0.0rc2 (mac64[arm] - Darwin 23.4.0 23E224)

CPU model: Apple M3 Pro
Thread count: 11 physical cores, 11 logical processors, using up to 11 threads

Optimize a model with 384 rows, 183 columns and 4543 nonzeros
Model fingerprint: 0x5c3a682f
Variable types: 1 continuous, 182 integer (174 binary)
Coefficient statistics:
  Matrix range     [3e-01, 7e+01]
  Objective range  [1e+00, 1e+00]
  Bounds range     [1e+00, 1e+00]
  RHS range        [1e+00, 7e+01]

No start values specified in MIP start

Found heuristic solution: objective 15.0000000
Presolve removed 384 rows and 183 columns
Presolve time: 0.00s
Presolve: All rows and columns removed

Explored 0 nodes (0 simplex iterations) in 0.00 seconds (0.01 work units)
Thread count was 1 (of 11 available processors)

Solution count 1: 15 

Optimal solution found (tolerance 1.00e-04)
Best objective 1.500000000000e+01, best bound 1.500000000000e+01, gap 0.0000%

Gurobi 11.0.0 (mac64[arm]) logging started Fri Apr 19 16:16:12 2024

Set parameter LogFile to value "GurobiLogs/boxing_2.txt"
Set parameter TimeLimit to value 3600
Read MIP start from file WarmStarts/boxing_2.mst
Gurobi Optimizer version 11.0.0 build v11.0.0rc2 (mac64[arm] - Darwin 23.4.0 23E224)

CPU model: Apple M3 Pro
Thread count: 11 physical cores, 11 logical processors, using up to 11 threads

Optimize a model with 384 rows, 183 columns and 4543 nonzeros
Model fingerprint: 0xf38e0717
Variable types: 1 continuous, 182 integer (174 binary)
Coefficient statistics:
  Matrix range     [3e-01, 7e+01]
  Objective range  [1e+00, 1e+00]
  Bounds range     [1e+00, 1e+00]
  RHS range        [1e+00, 7e+01]

User MIP start produced solution with objective 15 (0.01s)
Loaded user MIP start with objective 15

Presolve removed 384 rows and 183 columns
Presolve time: 0.00s
Presolve: All rows and columns removed

Explored 0 nodes (0 simplex iterations) in 0.01 seconds (0.01 work units)
Thread count was 1 (of 11 available processors)

Solution count 1: 15 

Optimal solution found (tolerance 1.00e-04)
Best objective 1.500000000000e+01, best bound 1.500000000000e+01, gap 0.0000%

Gurobi 11.0.0 (mac64[arm]) logging started Fri Apr 19 16:16:12 2024

Set parameter LogFile to value "GurobiLogs/boxing_2.txt"
Set parameter TimeLimit to value 3600
Read MIP start from file WarmStarts/boxing_2.mst
Gurobi Optimizer version 11.0.0 build v11.0.0rc2 (mac64[arm] - Darwin 23.4.0 23E224)

CPU model: Apple M3 Pro
Thread count: 11 physical cores, 11 logical processors, using up to 11 threads

Optimize a model with 384 rows, 183 columns and 4543 nonzeros
Model fingerprint: 0xf38e0717
Variable types: 1 continuous, 182 integer (174 binary)
Coefficient statistics:
  Matrix range     [3e-01, 7e+01]
  Objective range  [1e+00, 1e+00]
  Bounds range     [1e+00, 1e+00]
  RHS range        [1e+00, 7e+01]

User MIP start produced solution with objective 15 (0.01s)
Loaded user MIP start with objective 15

Presolve removed 384 rows and 183 columns
Presolve time: 0.00s
Presolve: All rows and columns removed

Explored 0 nodes (0 simplex iterations) in 0.01 seconds (0.01 work units)
Thread count was 1 (of 11 available processors)

Solution count 1: 15 

Optimal solution found (tolerance 1.00e-04)
Best objective 1.500000000000e+01, best bound 1.500000000000e+01, gap 0.0000%

Gurobi 11.0.0 (mac64[arm]) logging started Fri Apr 19 16:16:12 2024

Set parameter LogFile to value "GurobiLogs/boxing_2.txt"
Set parameter TimeLimit to value 3600
Read MIP start from file WarmStarts/boxing_2.mst
Gurobi Optimizer version 11.0.0 build v11.0.0rc2 (mac64[arm] - Darwin 23.4.0 23E224)

CPU model: Apple M3 Pro
Thread count: 11 physical cores, 11 logical processors, using up to 11 threads

Optimize a model with 384 rows, 183 columns and 4543 nonzeros
Model fingerprint: 0xf38e0717
Variable types: 1 continuous, 182 integer (174 binary)
Coefficient statistics:
  Matrix range     [3e-01, 7e+01]
  Objective range  [1e+00, 1e+00]
  Bounds range     [1e+00, 1e+00]
  RHS range        [1e+00, 7e+01]

User MIP start produced solution with objective 15 (0.00s)
Loaded user MIP start with objective 15

Presolve removed 384 rows and 183 columns
Presolve time: 0.00s
Presolve: All rows and columns removed

Explored 0 nodes (0 simplex iterations) in 0.01 seconds (0.01 work units)
Thread count was 1 (of 11 available processors)

Solution count 1: 15 

Optimal solution found (tolerance 1.00e-04)
Best objective 1.500000000000e+01, best bound 1.500000000000e+01, gap 0.0000%
